pure_adt/tip2015_nat_acc_alt_mul_comm.smt2
(set-logic HORN)
(declare-datatypes ((Nat_520 0)) (((zero_143 ) (succ_139 (p_387 Nat_520)))))
(declare-fun diseqNat_520 (Nat_520 Nat_520) Bool)
(declare-fun p_388 (Nat_520 Nat_520) Bool)
(declare-fun iszero_139 (Nat_520) Bool)
(declare-fun issucc_139 (Nat_520) Bool)
(assert (forall ((x_53555 Nat_520))
	(p_388 x_53555 (succ_139 x_53555))))
(assert (iszero_139 zero_143))
(assert (forall ((x_53557 Nat_520))
	(issucc_139 (succ_139 x_53557))))
(assert (forall ((x_53558 Nat_520))
	(diseqNat_520 zero_143 (succ_139 x_53558))))
(assert (forall ((x_53559 Nat_520))
	(diseqNat_520 (succ_139 x_53559) zero_143)))
(assert (forall ((x_53560 Nat_520) (x_53561 Nat_520))
	(=> (diseqNat_520 x_53560 x_53561)
	    (diseqNat_520 (succ_139 x_53560) (succ_139 x_53561)))))
(declare-fun accplus_5 (Nat_520 Nat_520 Nat_520) Bool)
(assert (forall ((x_53542 Nat_520) (z_1875 Nat_520) (y_2106 Nat_520))
	(=> (accplus_5 x_53542 z_1875 (succ_139 y_2106))
	    (accplus_5 x_53542 (succ_139 z_1875) y_2106))))
(assert (forall ((x_53544 Nat_520))
	(accplus_5 x_53544 zero_143 x_53544)))
(declare-fun accaltmul_2 (Nat_520 Nat_520 Nat_520) Bool)
(assert (forall ((x_53545 Nat_520) (x_53546 Nat_520) (x_53547 Nat_520) (x_53540 Nat_520) (z_1876 Nat_520))
	(=>	(and (accaltmul_2 x_53546 z_1876 x_53540)
			(accplus_5 x_53547 x_53540 x_53546)
			(accplus_5 x_53545 (succ_139 z_1876) x_53547))
		(accaltmul_2 x_53545 (succ_139 z_1876) (succ_139 x_53540)))))
(assert (forall ((z_1876 Nat_520))
	(accaltmul_2 zero_143 (succ_139 z_1876) zero_143)))
(assert (forall ((y_2107 Nat_520))
	(accaltmul_2 zero_143 zero_143 y_2107)))
(assert (forall ((x_53551 Nat_520) (x_53552 Nat_520) (x_53541 Nat_520) (y_2108 Nat_520))
	(=>	(and true
			(diseqNat_520 x_53551 x_53552)
			(accaltmul_2 x_53551 x_53541 y_2108)
			(accaltmul_2 x_53552 y_2108 x_53541))
		false)))
(check-sat)
